(set-logic ALL)
(set-option :produce-models true)
(declare-sort BoundSet 0)
(declare-sort UnboundSet 0)
(set-option :finite-model-find true)
(declare-fun OrderedMilitaryStrike (BoundSet BoundSet) Bool)
(declare-fun KilledCivilians (BoundSet BoundSet) Bool)
(declare-fun IsMassMurderer (BoundSet) Bool)
(declare-fun IsSameAs (BoundSet BoundSet) Bool)
(declare-fun BelongsInPrison (BoundSet BoundSet) Bool)
(assert (not (=> (exists ((a BoundSet)) (exists ((b BoundSet)) (exists ((c BoundSet)) (and (OrderedMilitaryStrike a b) (KilledCivilians b c))))) (exists ((a BoundSet)) (exists ((e BoundSet)) (exists ((d BoundSet)) (and (IsMassMurderer a) (and (IsSameAs a d) (BelongsInPrison a e)))))))))
(check-sat)
(get-model)